* Source:     Pyomo MPS Writer
* Format:     Free MPS
*
NAME unknown
OBJSENSE
 MIN
ROWS
 N  x131
 E  c_e_x132_
 E  c_e_x133_
 E  c_e_x134_
 E  c_e_x135_
 E  c_e_x136_
 E  c_e_x137_
 E  c_e_x138_
 E  c_e_x139_
 E  c_e_x140_
 E  c_e_x141_
 L  c_u_x142_
 L  c_u_x143_
 L  c_u_x144_
 L  c_u_x145_
 L  c_u_x146_
 L  c_u_x147_
 L  c_u_x148_
 L  c_u_x149_
 L  c_u_x150_
 L  c_u_x151_
 L  c_u_x152_
 L  c_u_x153_
 L  c_u_x154_
 L  c_u_x155_
 L  c_u_x156_
 L  c_u_x157_
 L  c_u_x158_
 L  c_u_x159_
 L  c_u_x160_
 L  c_u_x161_
 L  c_u_x162_
 L  c_u_x163_
 L  c_u_x164_
 L  c_u_x165_
 L  c_u_x166_
 L  c_u_x167_
 L  c_u_x168_
 L  c_u_x169_
 L  c_u_x170_
 L  c_u_x171_
 L  c_u_x172_
 L  c_u_x173_
 L  c_u_x174_
 L  c_u_x175_
 L  c_u_x176_
 L  c_u_x177_
 L  c_u_x178_
 L  c_u_x179_
 L  c_u_x180_
 L  c_u_x181_
 L  c_u_x182_
 L  c_u_x183_
 L  c_u_x184_
 L  c_u_x185_
 L  c_u_x186_
 L  c_u_x187_
 L  c_u_x188_
 L  c_u_x189_
 L  c_u_x190_
 L  c_u_x191_
 L  c_u_x192_
 L  c_u_x193_
 L  c_u_x194_
 L  c_u_x195_
 L  c_u_x196_
 L  c_u_x197_
 L  c_u_x198_
 L  c_u_x199_
 L  c_u_x200_
 L  c_u_x201_
 L  c_u_x202_
 L  c_u_x203_
 L  c_u_x204_
 L  c_u_x205_
 L  c_u_x206_
 L  c_u_x207_
 L  c_u_x208_
 L  c_u_x209_
 L  c_u_x210_
 L  c_u_x211_
 L  c_u_x212_
 L  c_u_x213_
 L  c_u_x214_
 L  c_u_x215_
 L  c_u_x216_
 L  c_u_x217_
 L  c_u_x218_
 L  c_u_x219_
 L  c_u_x220_
 L  c_u_x221_
 L  c_u_x222_
 L  c_u_x223_
 L  c_u_x224_
 L  c_u_x225_
 L  c_u_x226_
 L  c_u_x227_
 L  c_u_x228_
 L  c_u_x229_
 L  c_u_x230_
 L  c_u_x231_
 L  c_u_x232_
 L  c_u_x233_
 L  c_u_x234_
 L  c_u_x235_
 L  c_u_x236_
 L  c_u_x237_
 L  c_u_x238_
 L  c_u_x239_
 L  c_u_x240_
 L  c_u_x241_
 L  c_u_x242_
 L  c_u_x243_
 L  c_u_x244_
 L  c_u_x245_
 L  c_u_x246_
 L  c_u_x247_
 L  c_u_x248_
 L  c_u_x249_
 L  c_u_x250_
 L  c_u_x251_
 L  c_u_x252_
 E  c_e_x253_
 E  c_e_x254_
 E  c_e_x255_
 E  c_e_x256_
 E  c_e_x257_
 E  c_e_x258_
 E  c_e_x259_
 E  c_e_x260_
 E  c_e_x261_
 E  c_e_x262_
 L  c_u_x263_
 L  c_u_x264_
 L  c_u_x265_
 L  c_u_x266_
 L  c_u_x267_
 L  c_u_x268_
 L  c_u_x269_
 L  c_u_x270_
 L  c_u_x271_
 L  c_u_x272_
 L  c_u_x273_
 L  c_u_x274_
 L  c_u_x275_
 L  c_u_x276_
 L  c_u_x277_
 L  c_u_x278_
 L  c_u_x279_
 L  c_u_x280_
 L  c_u_x281_
 L  c_u_x282_
 L  c_u_x283_
 L  c_u_x284_
 L  c_u_x285_
 L  c_u_x286_
 L  c_u_x287_
 L  c_u_x288_
 L  c_u_x289_
 L  c_u_x290_
 L  c_u_x291_
 L  c_u_x292_
 L  c_u_x293_
 L  c_u_x294_
 L  c_u_x295_
 L  c_u_x296_
 L  c_u_x297_
 L  c_u_x298_
 L  c_u_x299_
 L  c_u_x300_
 L  c_u_x301_
 L  c_u_x302_
 L  c_u_x303_
 L  c_u_x304_
 L  c_u_x305_
 L  c_u_x306_
 L  c_u_x307_
 L  c_u_x308_
 L  c_u_x309_
 L  c_u_x310_
 L  c_u_x311_
 L  c_u_x312_
 L  c_u_x313_
 L  c_u_x314_
 L  c_u_x315_
 L  c_u_x316_
 L  c_u_x317_
 L  c_u_x318_
 L  c_u_x319_
 L  c_u_x320_
 L  c_u_x321_
 L  c_u_x322_
 L  c_u_x323_
 L  c_u_x324_
 L  c_u_x325_
 L  c_u_x326_
 L  c_u_x327_
 L  c_u_x328_
 L  c_u_x329_
 L  c_u_x330_
 L  c_u_x331_
 L  c_u_x332_
 L  c_u_x333_
 L  c_u_x334_
 L  c_u_x335_
 L  c_u_x336_
 L  c_u_x337_
 L  c_u_x338_
 L  c_u_x339_
 L  c_u_x340_
 L  c_u_x341_
 L  c_u_x342_
 L  c_u_x343_
 L  c_u_x344_
 L  c_u_x345_
 L  c_u_x346_
 L  c_u_x347_
 L  c_u_x348_
 L  c_u_x349_
 L  c_u_x350_
 L  c_u_x351_
 L  c_u_x352_
 L  c_u_x353_
 L  c_u_x354_
 L  c_u_x355_
 L  c_u_x356_
 L  c_u_x357_
 L  c_u_x358_
 L  c_u_x359_
 L  c_u_x360_
 L  c_u_x361_
 L  c_u_x362_
 L  c_u_x363_
 L  c_u_x364_
 L  c_u_x365_
 L  c_u_x366_
 L  c_u_x367_
 L  c_u_x368_
 L  c_u_x369_
 L  c_u_x370_
 L  c_u_x371_
 L  c_u_x372_
 E  c_e_x373_
 E  c_e_x374_
 E  c_e_x375_
 E  c_e_x376_
 E  c_e_x377_
 E  c_e_x378_
 E  c_e_x379_
 E  c_e_x380_
 E  c_e_x381_
 E  c_e_x382_
COLUMNS
     x1 c_e_x132_ 1
     x1 c_u_x142_ 1
     x1 c_u_x242_ 6
     x1 c_u_x263_ 1
     x1 c_e_x373_ 1
     x2 c_e_x132_ 1
     x2 c_u_x143_ 1
     x2 c_u_x243_ 6
     x2 c_u_x264_ 1
     x2 c_e_x374_ 1
     x3 c_e_x132_ 1
     x3 c_u_x144_ 1
     x3 c_u_x244_ 6
     x3 c_u_x265_ 1
     x3 c_e_x375_ 1
     x4 c_e_x132_ 1
     x4 c_u_x145_ 1
     x4 c_u_x245_ 6
     x4 c_u_x266_ 1
     x4 c_e_x376_ 1
     x5 c_e_x132_ 1
     x5 c_u_x146_ 1
     x5 c_u_x246_ 6
     x5 c_u_x267_ 1
     x5 c_e_x377_ 1
     x6 c_e_x132_ 1
     x6 c_u_x147_ 1
     x6 c_u_x247_ 6
     x6 c_u_x268_ 1
     x6 c_e_x378_ 1
     x7 c_e_x132_ 1
     x7 c_u_x148_ 1
     x7 c_u_x248_ 6
     x7 c_u_x269_ 1
     x7 c_e_x379_ 1
     x8 c_e_x132_ 1
     x8 c_u_x149_ 1
     x8 c_u_x249_ 6
     x8 c_u_x270_ 1
     x8 c_e_x380_ 1
     x9 c_e_x132_ 1
     x9 c_u_x150_ 1
     x9 c_u_x250_ 6
     x9 c_u_x271_ 1
     x9 c_e_x381_ 1
     x10 c_e_x132_ 1
     x10 c_u_x151_ 1
     x10 c_u_x251_ 6
     x10 c_u_x272_ 1
     x10 c_e_x382_ 1
     x11 c_e_x133_ 1
     x11 c_u_x152_ 1
     x11 c_u_x242_ 4
     x11 c_u_x273_ 1
     x11 c_e_x373_ -1
     x12 c_e_x133_ 1
     x12 c_u_x153_ 1
     x12 c_u_x243_ 4
     x12 c_u_x274_ 1
     x12 c_e_x374_ -1
     x13 c_e_x133_ 1
     x13 c_u_x154_ 1
     x13 c_u_x244_ 4
     x13 c_u_x275_ 1
     x13 c_e_x375_ -1
     x14 c_e_x133_ 1
     x14 c_u_x155_ 1
     x14 c_u_x245_ 4
     x14 c_u_x276_ 1
     x14 c_e_x376_ -1
     x15 c_e_x133_ 1
     x15 c_u_x156_ 1
     x15 c_u_x246_ 4
     x15 c_u_x277_ 1
     x15 c_e_x377_ -1
     x16 c_e_x133_ 1
     x16 c_u_x157_ 1
     x16 c_u_x247_ 4
     x16 c_u_x278_ 1
     x16 c_e_x378_ -1
     x17 c_e_x133_ 1
     x17 c_u_x158_ 1
     x17 c_u_x248_ 4
     x17 c_u_x279_ 1
     x17 c_e_x379_ -1
     x18 c_e_x133_ 1
     x18 c_u_x159_ 1
     x18 c_u_x249_ 4
     x18 c_u_x280_ 1
     x18 c_e_x380_ -1
     x19 c_e_x133_ 1
     x19 c_u_x160_ 1
     x19 c_u_x250_ 4
     x19 c_u_x281_ 1
     x19 c_e_x381_ -1
     x20 c_e_x133_ 1
     x20 c_u_x161_ 1
     x20 c_u_x251_ 4
     x20 c_u_x282_ 1
     x20 c_e_x382_ -1
     x21 c_e_x134_ 1
     x21 c_u_x162_ 1
     x21 c_u_x242_ 7
     x21 c_u_x283_ 1
     x22 c_e_x134_ 1
     x22 c_u_x163_ 1
     x22 c_u_x243_ 7
     x22 c_u_x284_ 1
     x23 c_e_x134_ 1
     x23 c_u_x164_ 1
     x23 c_u_x244_ 7
     x23 c_u_x285_ 1
     x24 c_e_x134_ 1
     x24 c_u_x165_ 1
     x24 c_u_x245_ 7
     x24 c_u_x286_ 1
     x25 c_e_x134_ 1
     x25 c_u_x166_ 1
     x25 c_u_x246_ 7
     x25 c_u_x287_ 1
     x26 c_e_x134_ 1
     x26 c_u_x167_ 1
     x26 c_u_x247_ 7
     x26 c_u_x288_ 1
     x27 c_e_x134_ 1
     x27 c_u_x168_ 1
     x27 c_u_x248_ 7
     x27 c_u_x289_ 1
     x28 c_e_x134_ 1
     x28 c_u_x169_ 1
     x28 c_u_x249_ 7
     x28 c_u_x290_ 1
     x29 c_e_x134_ 1
     x29 c_u_x170_ 1
     x29 c_u_x250_ 7
     x29 c_u_x291_ 1
     x30 c_e_x134_ 1
     x30 c_u_x171_ 1
     x30 c_u_x251_ 7
     x30 c_u_x292_ 1
     x31 c_e_x135_ 1
     x31 c_u_x172_ 1
     x31 c_u_x242_ 12
     x31 c_u_x293_ 1
     x32 c_e_x135_ 1
     x32 c_u_x173_ 1
     x32 c_u_x243_ 12
     x32 c_u_x294_ 1
     x33 c_e_x135_ 1
     x33 c_u_x174_ 1
     x33 c_u_x244_ 12
     x33 c_u_x295_ 1
     x34 c_e_x135_ 1
     x34 c_u_x175_ 1
     x34 c_u_x245_ 12
     x34 c_u_x296_ 1
     x35 c_e_x135_ 1
     x35 c_u_x176_ 1
     x35 c_u_x246_ 12
     x35 c_u_x297_ 1
     x36 c_e_x135_ 1
     x36 c_u_x177_ 1
     x36 c_u_x247_ 12
     x36 c_u_x298_ 1
     x37 c_e_x135_ 1
     x37 c_u_x178_ 1
     x37 c_u_x248_ 12
     x37 c_u_x299_ 1
     x38 c_e_x135_ 1
     x38 c_u_x179_ 1
     x38 c_u_x249_ 12
     x38 c_u_x300_ 1
     x39 c_e_x135_ 1
     x39 c_u_x180_ 1
     x39 c_u_x250_ 12
     x39 c_u_x301_ 1
     x40 c_e_x135_ 1
     x40 c_u_x181_ 1
     x40 c_u_x251_ 12
     x40 c_u_x302_ 1
     x41 c_e_x136_ 1
     x41 c_u_x182_ 1
     x41 c_u_x303_ 1
     x42 c_e_x136_ 1
     x42 c_u_x183_ 1
     x42 c_u_x304_ 1
     x43 c_e_x136_ 1
     x43 c_u_x184_ 1
     x43 c_u_x305_ 1
     x44 c_e_x136_ 1
     x44 c_u_x185_ 1
     x44 c_u_x306_ 1
     x45 c_e_x136_ 1
     x45 c_u_x186_ 1
     x45 c_u_x307_ 1
     x46 c_e_x136_ 1
     x46 c_u_x187_ 1
     x46 c_u_x308_ 1
     x47 c_e_x136_ 1
     x47 c_u_x188_ 1
     x47 c_u_x309_ 1
     x48 c_e_x136_ 1
     x48 c_u_x189_ 1
     x48 c_u_x310_ 1
     x49 c_e_x136_ 1
     x49 c_u_x190_ 1
     x49 c_u_x311_ 1
     x50 c_e_x136_ 1
     x50 c_u_x191_ 1
     x50 c_u_x312_ 1
     x51 c_e_x137_ 1
     x51 c_u_x192_ 1
     x51 c_u_x242_ 4
     x51 c_u_x252_ 1
     x51 c_u_x313_ 1
     x52 c_e_x137_ 1
     x52 c_u_x193_ 1
     x52 c_u_x243_ 4
     x52 c_u_x252_ 2
     x52 c_u_x314_ 1
     x53 c_e_x137_ 1
     x53 c_u_x194_ 1
     x53 c_u_x244_ 4
     x53 c_u_x252_ 3
     x53 c_u_x315_ 1
     x54 c_e_x137_ 1
     x54 c_u_x195_ 1
     x54 c_u_x245_ 4
     x54 c_u_x252_ 4
     x54 c_u_x316_ 1
     x55 c_e_x137_ 1
     x55 c_u_x196_ 1
     x55 c_u_x246_ 4
     x55 c_u_x252_ 5
     x55 c_u_x317_ 1
     x56 c_e_x137_ 1
     x56 c_u_x197_ 1
     x56 c_u_x247_ 4
     x56 c_u_x252_ 6
     x56 c_u_x318_ 1
     x57 c_e_x137_ 1
     x57 c_u_x198_ 1
     x57 c_u_x248_ 4
     x57 c_u_x252_ 7
     x57 c_u_x319_ 1
     x58 c_e_x137_ 1
     x58 c_u_x199_ 1
     x58 c_u_x249_ 4
     x58 c_u_x252_ 8
     x58 c_u_x320_ 1
     x59 c_e_x137_ 1
     x59 c_u_x200_ 1
     x59 c_u_x250_ 4
     x59 c_u_x252_ 9
     x59 c_u_x321_ 1
     x60 c_e_x137_ 1
     x60 c_u_x201_ 1
     x60 c_u_x251_ 4
     x60 c_u_x252_ 10
     x60 c_u_x322_ 1
     x61 c_e_x138_ 1
     x61 c_u_x202_ 1
     x61 c_u_x242_ 8
     x61 c_u_x252_ -1
     x61 c_u_x323_ 1
     x62 c_e_x138_ 1
     x62 c_u_x203_ 1
     x62 c_u_x243_ 8
     x62 c_u_x252_ -2
     x62 c_u_x324_ 1
     x63 c_e_x138_ 1
     x63 c_u_x204_ 1
     x63 c_u_x244_ 8
     x63 c_u_x252_ -3
     x63 c_u_x325_ 1
     x64 c_e_x138_ 1
     x64 c_u_x205_ 1
     x64 c_u_x245_ 8
     x64 c_u_x252_ -4
     x64 c_u_x326_ 1
     x65 c_e_x138_ 1
     x65 c_u_x206_ 1
     x65 c_u_x246_ 8
     x65 c_u_x252_ -5
     x65 c_u_x327_ 1
     x66 c_e_x138_ 1
     x66 c_u_x207_ 1
     x66 c_u_x247_ 8
     x66 c_u_x252_ -6
     x66 c_u_x328_ 1
     x67 c_e_x138_ 1
     x67 c_u_x208_ 1
     x67 c_u_x248_ 8
     x67 c_u_x252_ -7
     x67 c_u_x329_ 1
     x68 c_e_x138_ 1
     x68 c_u_x209_ 1
     x68 c_u_x249_ 8
     x68 c_u_x252_ -8
     x68 c_u_x330_ 1
     x69 c_e_x138_ 1
     x69 c_u_x210_ 1
     x69 c_u_x250_ 8
     x69 c_u_x252_ -9
     x69 c_u_x331_ 1
     x70 c_e_x138_ 1
     x70 c_u_x211_ 1
     x70 c_u_x251_ 8
     x70 c_u_x252_ -10
     x70 c_u_x332_ 1
     x71 c_e_x139_ 1
     x71 c_u_x212_ 1
     x71 c_u_x242_ 9
     x71 c_u_x333_ 1
     x71 c_u_x363_ 1
     x72 c_e_x139_ 1
     x72 c_u_x213_ 1
     x72 c_u_x243_ 9
     x72 c_u_x334_ 1
     x72 c_u_x364_ 1
     x73 c_e_x139_ 1
     x73 c_u_x214_ 1
     x73 c_u_x244_ 9
     x73 c_u_x335_ 1
     x73 c_u_x365_ 1
     x74 c_e_x139_ 1
     x74 c_u_x215_ 1
     x74 c_u_x245_ 9
     x74 c_u_x336_ 1
     x74 c_u_x366_ 1
     x75 c_e_x139_ 1
     x75 c_u_x216_ 1
     x75 c_u_x246_ 9
     x75 c_u_x337_ 1
     x75 c_u_x367_ 1
     x76 c_e_x139_ 1
     x76 c_u_x217_ 1
     x76 c_u_x247_ 9
     x76 c_u_x338_ 1
     x76 c_u_x368_ 1
     x77 c_e_x139_ 1
     x77 c_u_x218_ 1
     x77 c_u_x248_ 9
     x77 c_u_x339_ 1
     x77 c_u_x369_ 1
     x78 c_e_x139_ 1
     x78 c_u_x219_ 1
     x78 c_u_x249_ 9
     x78 c_u_x340_ 1
     x78 c_u_x370_ 1
     x79 c_e_x139_ 1
     x79 c_u_x220_ 1
     x79 c_u_x250_ 9
     x79 c_u_x341_ 1
     x79 c_u_x371_ 1
     x80 c_e_x139_ 1
     x80 c_u_x221_ 1
     x80 c_u_x251_ 9
     x80 c_u_x342_ 1
     x80 c_u_x372_ 1
     x81 c_e_x140_ 1
     x81 c_u_x222_ 1
     x81 c_u_x242_ 4
     x81 c_u_x343_ 1
     x81 c_u_x363_ 1
     x82 c_e_x140_ 1
     x82 c_u_x223_ 1
     x82 c_u_x243_ 4
     x82 c_u_x344_ 1
     x82 c_u_x364_ 1
     x83 c_e_x140_ 1
     x83 c_u_x224_ 1
     x83 c_u_x244_ 4
     x83 c_u_x345_ 1
     x83 c_u_x365_ 1
     x84 c_e_x140_ 1
     x84 c_u_x225_ 1
     x84 c_u_x245_ 4
     x84 c_u_x346_ 1
     x84 c_u_x366_ 1
     x85 c_e_x140_ 1
     x85 c_u_x226_ 1
     x85 c_u_x246_ 4
     x85 c_u_x347_ 1
     x85 c_u_x367_ 1
     x86 c_e_x140_ 1
     x86 c_u_x227_ 1
     x86 c_u_x247_ 4
     x86 c_u_x348_ 1
     x86 c_u_x368_ 1
     x87 c_e_x140_ 1
     x87 c_u_x228_ 1
     x87 c_u_x248_ 4
     x87 c_u_x349_ 1
     x87 c_u_x369_ 1
     x88 c_e_x140_ 1
     x88 c_u_x229_ 1
     x88 c_u_x249_ 4
     x88 c_u_x350_ 1
     x88 c_u_x370_ 1
     x89 c_e_x140_ 1
     x89 c_u_x230_ 1
     x89 c_u_x250_ 4
     x89 c_u_x351_ 1
     x89 c_u_x371_ 1
     x90 c_e_x140_ 1
     x90 c_u_x231_ 1
     x90 c_u_x251_ 4
     x90 c_u_x352_ 1
     x90 c_u_x372_ 1
     x91 c_e_x141_ 1
     x91 c_u_x232_ 1
     x91 c_u_x242_ 6
     x91 c_u_x353_ 1
     x92 c_e_x141_ 1
     x92 c_u_x233_ 1
     x92 c_u_x243_ 6
     x92 c_u_x354_ 1
     x93 c_e_x141_ 1
     x93 c_u_x234_ 1
     x93 c_u_x244_ 6
     x93 c_u_x355_ 1
     x94 c_e_x141_ 1
     x94 c_u_x235_ 1
     x94 c_u_x245_ 6
     x94 c_u_x356_ 1
     x95 c_e_x141_ 1
     x95 c_u_x236_ 1
     x95 c_u_x246_ 6
     x95 c_u_x357_ 1
     x96 c_e_x141_ 1
     x96 c_u_x237_ 1
     x96 c_u_x247_ 6
     x96 c_u_x358_ 1
     x97 c_e_x141_ 1
     x97 c_u_x238_ 1
     x97 c_u_x248_ 6
     x97 c_u_x359_ 1
     x98 c_e_x141_ 1
     x98 c_u_x239_ 1
     x98 c_u_x249_ 6
     x98 c_u_x360_ 1
     x99 c_e_x141_ 1
     x99 c_u_x240_ 1
     x99 c_u_x250_ 6
     x99 c_u_x361_ 1
     x100 c_e_x141_ 1
     x100 c_u_x241_ 1
     x100 c_u_x251_ 6
     x100 c_u_x362_ 1
     x101 c_u_x142_ -1
     x101 c_u_x152_ -1
     x101 c_u_x162_ -1
     x101 c_u_x172_ -1
     x101 c_u_x182_ -1
     x101 c_u_x192_ -1
     x101 c_u_x202_ -1
     x101 c_u_x212_ -1
     x101 c_u_x222_ -1
     x101 c_u_x232_ -1
     x101 c_u_x242_ -20
     x101 c_e_x253_ -1
     x102 c_u_x143_ -1
     x102 c_u_x153_ -1
     x102 c_u_x163_ -1
     x102 c_u_x173_ -1
     x102 c_u_x183_ -1
     x102 c_u_x193_ -1
     x102 c_u_x203_ -1
     x102 c_u_x213_ -1
     x102 c_u_x223_ -1
     x102 c_u_x233_ -1
     x102 c_u_x243_ -20
     x102 c_e_x254_ -1
     x103 c_u_x144_ -1
     x103 c_u_x154_ -1
     x103 c_u_x164_ -1
     x103 c_u_x174_ -1
     x103 c_u_x184_ -1
     x103 c_u_x194_ -1
     x103 c_u_x204_ -1
     x103 c_u_x214_ -1
     x103 c_u_x224_ -1
     x103 c_u_x234_ -1
     x103 c_u_x244_ -20
     x103 c_e_x255_ -1
     x104 c_u_x145_ -1
     x104 c_u_x155_ -1
     x104 c_u_x165_ -1
     x104 c_u_x175_ -1
     x104 c_u_x185_ -1
     x104 c_u_x195_ -1
     x104 c_u_x205_ -1
     x104 c_u_x215_ -1
     x104 c_u_x225_ -1
     x104 c_u_x235_ -1
     x104 c_u_x245_ -20
     x104 c_e_x256_ -1
     x105 c_u_x146_ -1
     x105 c_u_x156_ -1
     x105 c_u_x166_ -1
     x105 c_u_x176_ -1
     x105 c_u_x186_ -1
     x105 c_u_x196_ -1
     x105 c_u_x206_ -1
     x105 c_u_x216_ -1
     x105 c_u_x226_ -1
     x105 c_u_x236_ -1
     x105 c_u_x246_ -20
     x105 c_e_x257_ -1
     x106 c_u_x147_ -1
     x106 c_u_x157_ -1
     x106 c_u_x167_ -1
     x106 c_u_x177_ -1
     x106 c_u_x187_ -1
     x106 c_u_x197_ -1
     x106 c_u_x207_ -1
     x106 c_u_x217_ -1
     x106 c_u_x227_ -1
     x106 c_u_x237_ -1
     x106 c_u_x247_ -20
     x106 c_e_x258_ -1
     x107 c_u_x148_ -1
     x107 c_u_x158_ -1
     x107 c_u_x168_ -1
     x107 c_u_x178_ -1
     x107 c_u_x188_ -1
     x107 c_u_x198_ -1
     x107 c_u_x208_ -1
     x107 c_u_x218_ -1
     x107 c_u_x228_ -1
     x107 c_u_x238_ -1
     x107 c_u_x248_ -20
     x107 c_e_x259_ -1
     x108 c_u_x149_ -1
     x108 c_u_x159_ -1
     x108 c_u_x169_ -1
     x108 c_u_x179_ -1
     x108 c_u_x189_ -1
     x108 c_u_x199_ -1
     x108 c_u_x209_ -1
     x108 c_u_x219_ -1
     x108 c_u_x229_ -1
     x108 c_u_x239_ -1
     x108 c_u_x249_ -20
     x108 c_e_x260_ -1
     x109 c_u_x150_ -1
     x109 c_u_x160_ -1
     x109 c_u_x170_ -1
     x109 c_u_x180_ -1
     x109 c_u_x190_ -1
     x109 c_u_x200_ -1
     x109 c_u_x210_ -1
     x109 c_u_x220_ -1
     x109 c_u_x230_ -1
     x109 c_u_x240_ -1
     x109 c_u_x250_ -20
     x109 c_e_x261_ -1
     x110 c_u_x151_ -1
     x110 c_u_x161_ -1
     x110 c_u_x171_ -1
     x110 c_u_x181_ -1
     x110 c_u_x191_ -1
     x110 c_u_x201_ -1
     x110 c_u_x211_ -1
     x110 c_u_x221_ -1
     x110 c_u_x231_ -1
     x110 c_u_x241_ -1
     x110 c_u_x251_ -20
     x110 c_e_x262_ -1
     x111 x131 50
     x111 c_e_x253_ 1
     x111 c_u_x263_ -1
     x111 c_u_x273_ -1
     x111 c_u_x303_ -1
     x111 c_u_x313_ -1
     x111 c_u_x323_ -1
     x111 c_u_x333_ -1
     x111 c_u_x343_ -1
     x112 x131 60
     x112 c_e_x253_ 1
     x112 c_u_x283_ -1
     x112 c_u_x293_ -1
     x112 c_u_x303_ -1
     x112 c_u_x313_ -1
     x112 c_u_x333_ -1
     x112 c_u_x353_ -1
     x113 x131 50
     x113 c_e_x254_ 1
     x113 c_u_x264_ -1
     x113 c_u_x274_ -1
     x113 c_u_x304_ -1
     x113 c_u_x314_ -1
     x113 c_u_x324_ -1
     x113 c_u_x334_ -1
     x113 c_u_x344_ -1
     x114 x131 60
     x114 c_e_x254_ 1
     x114 c_u_x284_ -1
     x114 c_u_x294_ -1
     x114 c_u_x304_ -1
     x114 c_u_x314_ -1
     x114 c_u_x334_ -1
     x114 c_u_x354_ -1
     x115 x131 50
     x115 c_e_x255_ 1
     x115 c_u_x265_ -1
     x115 c_u_x275_ -1
     x115 c_u_x305_ -1
     x115 c_u_x315_ -1
     x115 c_u_x325_ -1
     x115 c_u_x335_ -1
     x115 c_u_x345_ -1
     x116 x131 60
     x116 c_e_x255_ 1
     x116 c_u_x285_ -1
     x116 c_u_x295_ -1
     x116 c_u_x305_ -1
     x116 c_u_x315_ -1
     x116 c_u_x335_ -1
     x116 c_u_x355_ -1
     x117 x131 50
     x117 c_e_x256_ 1
     x117 c_u_x266_ -1
     x117 c_u_x276_ -1
     x117 c_u_x306_ -1
     x117 c_u_x316_ -1
     x117 c_u_x326_ -1
     x117 c_u_x336_ -1
     x117 c_u_x346_ -1
     x118 x131 60
     x118 c_e_x256_ 1
     x118 c_u_x286_ -1
     x118 c_u_x296_ -1
     x118 c_u_x306_ -1
     x118 c_u_x316_ -1
     x118 c_u_x336_ -1
     x118 c_u_x356_ -1
     x119 x131 50
     x119 c_e_x257_ 1
     x119 c_u_x267_ -1
     x119 c_u_x277_ -1
     x119 c_u_x307_ -1
     x119 c_u_x317_ -1
     x119 c_u_x327_ -1
     x119 c_u_x337_ -1
     x119 c_u_x347_ -1
     x120 x131 60
     x120 c_e_x257_ 1
     x120 c_u_x287_ -1
     x120 c_u_x297_ -1
     x120 c_u_x307_ -1
     x120 c_u_x317_ -1
     x120 c_u_x337_ -1
     x120 c_u_x357_ -1
     x121 x131 50
     x121 c_e_x258_ 1
     x121 c_u_x268_ -1
     x121 c_u_x278_ -1
     x121 c_u_x308_ -1
     x121 c_u_x318_ -1
     x121 c_u_x328_ -1
     x121 c_u_x338_ -1
     x121 c_u_x348_ -1
     x122 x131 60
     x122 c_e_x258_ 1
     x122 c_u_x288_ -1
     x122 c_u_x298_ -1
     x122 c_u_x308_ -1
     x122 c_u_x318_ -1
     x122 c_u_x338_ -1
     x122 c_u_x358_ -1
     x123 x131 50
     x123 c_e_x259_ 1
     x123 c_u_x269_ -1
     x123 c_u_x279_ -1
     x123 c_u_x309_ -1
     x123 c_u_x319_ -1
     x123 c_u_x329_ -1
     x123 c_u_x339_ -1
     x123 c_u_x349_ -1
     x124 x131 60
     x124 c_e_x259_ 1
     x124 c_u_x289_ -1
     x124 c_u_x299_ -1
     x124 c_u_x309_ -1
     x124 c_u_x319_ -1
     x124 c_u_x339_ -1
     x124 c_u_x359_ -1
     x125 x131 50
     x125 c_e_x260_ 1
     x125 c_u_x270_ -1
     x125 c_u_x280_ -1
     x125 c_u_x310_ -1
     x125 c_u_x320_ -1
     x125 c_u_x330_ -1
     x125 c_u_x340_ -1
     x125 c_u_x350_ -1
     x126 x131 60
     x126 c_e_x260_ 1
     x126 c_u_x290_ -1
     x126 c_u_x300_ -1
     x126 c_u_x310_ -1
     x126 c_u_x320_ -1
     x126 c_u_x340_ -1
     x126 c_u_x360_ -1
     x127 x131 50
     x127 c_e_x261_ 1
     x127 c_u_x271_ -1
     x127 c_u_x281_ -1
     x127 c_u_x311_ -1
     x127 c_u_x321_ -1
     x127 c_u_x331_ -1
     x127 c_u_x341_ -1
     x127 c_u_x351_ -1
     x128 x131 60
     x128 c_e_x261_ 1
     x128 c_u_x291_ -1
     x128 c_u_x301_ -1
     x128 c_u_x311_ -1
     x128 c_u_x321_ -1
     x128 c_u_x341_ -1
     x128 c_u_x361_ -1
     x129 x131 50
     x129 c_e_x262_ 1
     x129 c_u_x272_ -1
     x129 c_u_x282_ -1
     x129 c_u_x312_ -1
     x129 c_u_x322_ -1
     x129 c_u_x332_ -1
     x129 c_u_x342_ -1
     x129 c_u_x352_ -1
     x130 x131 60
     x130 c_e_x262_ 1
     x130 c_u_x292_ -1
     x130 c_u_x302_ -1
     x130 c_u_x312_ -1
     x130 c_u_x322_ -1
     x130 c_u_x342_ -1
     x130 c_u_x362_ -1
RHS
     RHS c_e_x132_ 1
     RHS c_e_x133_ 1
     RHS c_e_x134_ 1
     RHS c_e_x135_ 1
     RHS c_e_x136_ 1
     RHS c_e_x137_ 1
     RHS c_e_x138_ 1
     RHS c_e_x139_ 1
     RHS c_e_x140_ 1
     RHS c_e_x141_ 1
     RHS c_u_x142_ 0
     RHS c_u_x143_ 0
     RHS c_u_x144_ 0
     RHS c_u_x145_ 0
     RHS c_u_x146_ 0
     RHS c_u_x147_ 0
     RHS c_u_x148_ 0
     RHS c_u_x149_ 0
     RHS c_u_x150_ 0
     RHS c_u_x151_ 0
     RHS c_u_x152_ 0
     RHS c_u_x153_ 0
     RHS c_u_x154_ 0
     RHS c_u_x155_ 0
     RHS c_u_x156_ 0
     RHS c_u_x157_ 0
     RHS c_u_x158_ 0
     RHS c_u_x159_ 0
     RHS c_u_x160_ 0
     RHS c_u_x161_ 0
     RHS c_u_x162_ 0
     RHS c_u_x163_ 0
     RHS c_u_x164_ 0
     RHS c_u_x165_ 0
     RHS c_u_x166_ 0
     RHS c_u_x167_ 0
     RHS c_u_x168_ 0
     RHS c_u_x169_ 0
     RHS c_u_x170_ 0
     RHS c_u_x171_ 0
     RHS c_u_x172_ 0
     RHS c_u_x173_ 0
     RHS c_u_x174_ 0
     RHS c_u_x175_ 0
     RHS c_u_x176_ 0
     RHS c_u_x177_ 0
     RHS c_u_x178_ 0
     RHS c_u_x179_ 0
     RHS c_u_x180_ 0
     RHS c_u_x181_ 0
     RHS c_u_x182_ 0
     RHS c_u_x183_ 0
     RHS c_u_x184_ 0
     RHS c_u_x185_ 0
     RHS c_u_x186_ 0
     RHS c_u_x187_ 0
     RHS c_u_x188_ 0
     RHS c_u_x189_ 0
     RHS c_u_x190_ 0
     RHS c_u_x191_ 0
     RHS c_u_x192_ 0
     RHS c_u_x193_ 0
     RHS c_u_x194_ 0
     RHS c_u_x195_ 0
     RHS c_u_x196_ 0
     RHS c_u_x197_ 0
     RHS c_u_x198_ 0
     RHS c_u_x199_ 0
     RHS c_u_x200_ 0
     RHS c_u_x201_ 0
     RHS c_u_x202_ 0
     RHS c_u_x203_ 0
     RHS c_u_x204_ 0
     RHS c_u_x205_ 0
     RHS c_u_x206_ 0
     RHS c_u_x207_ 0
     RHS c_u_x208_ 0
     RHS c_u_x209_ 0
     RHS c_u_x210_ 0
     RHS c_u_x211_ 0
     RHS c_u_x212_ 0
     RHS c_u_x213_ 0
     RHS c_u_x214_ 0
     RHS c_u_x215_ 0
     RHS c_u_x216_ 0
     RHS c_u_x217_ 0
     RHS c_u_x218_ 0
     RHS c_u_x219_ 0
     RHS c_u_x220_ 0
     RHS c_u_x221_ 0
     RHS c_u_x222_ 0
     RHS c_u_x223_ 0
     RHS c_u_x224_ 0
     RHS c_u_x225_ 0
     RHS c_u_x226_ 0
     RHS c_u_x227_ 0
     RHS c_u_x228_ 0
     RHS c_u_x229_ 0
     RHS c_u_x230_ 0
     RHS c_u_x231_ 0
     RHS c_u_x232_ 0
     RHS c_u_x233_ 0
     RHS c_u_x234_ 0
     RHS c_u_x235_ 0
     RHS c_u_x236_ 0
     RHS c_u_x237_ 0
     RHS c_u_x238_ 0
     RHS c_u_x239_ 0
     RHS c_u_x240_ 0
     RHS c_u_x241_ 0
     RHS c_u_x242_ 0
     RHS c_u_x243_ 0
     RHS c_u_x244_ 0
     RHS c_u_x245_ 0
     RHS c_u_x246_ 0
     RHS c_u_x247_ 0
     RHS c_u_x248_ 0
     RHS c_u_x249_ 0
     RHS c_u_x250_ 0
     RHS c_u_x251_ 0
     RHS c_u_x252_ 0
     RHS c_e_x253_ 0
     RHS c_e_x254_ 0
     RHS c_e_x255_ 0
     RHS c_e_x256_ 0
     RHS c_e_x257_ 0
     RHS c_e_x258_ 0
     RHS c_e_x259_ 0
     RHS c_e_x260_ 0
     RHS c_e_x261_ 0
     RHS c_e_x262_ 0
     RHS c_u_x263_ 0
     RHS c_u_x264_ 0
     RHS c_u_x265_ 0
     RHS c_u_x266_ 0
     RHS c_u_x267_ 0
     RHS c_u_x268_ 0
     RHS c_u_x269_ 0
     RHS c_u_x270_ 0
     RHS c_u_x271_ 0
     RHS c_u_x272_ 0
     RHS c_u_x273_ 0
     RHS c_u_x274_ 0
     RHS c_u_x275_ 0
     RHS c_u_x276_ 0
     RHS c_u_x277_ 0
     RHS c_u_x278_ 0
     RHS c_u_x279_ 0
     RHS c_u_x280_ 0
     RHS c_u_x281_ 0
     RHS c_u_x282_ 0
     RHS c_u_x283_ 0
     RHS c_u_x284_ 0
     RHS c_u_x285_ 0
     RHS c_u_x286_ 0
     RHS c_u_x287_ 0
     RHS c_u_x288_ 0
     RHS c_u_x289_ 0
     RHS c_u_x290_ 0
     RHS c_u_x291_ 0
     RHS c_u_x292_ 0
     RHS c_u_x293_ 0
     RHS c_u_x294_ 0
     RHS c_u_x295_ 0
     RHS c_u_x296_ 0
     RHS c_u_x297_ 0
     RHS c_u_x298_ 0
     RHS c_u_x299_ 0
     RHS c_u_x300_ 0
     RHS c_u_x301_ 0
     RHS c_u_x302_ 0
     RHS c_u_x303_ 0
     RHS c_u_x304_ 0
     RHS c_u_x305_ 0
     RHS c_u_x306_ 0
     RHS c_u_x307_ 0
     RHS c_u_x308_ 0
     RHS c_u_x309_ 0
     RHS c_u_x310_ 0
     RHS c_u_x311_ 0
     RHS c_u_x312_ 0
     RHS c_u_x313_ 0
     RHS c_u_x314_ 0
     RHS c_u_x315_ 0
     RHS c_u_x316_ 0
     RHS c_u_x317_ 0
     RHS c_u_x318_ 0
     RHS c_u_x319_ 0
     RHS c_u_x320_ 0
     RHS c_u_x321_ 0
     RHS c_u_x322_ 0
     RHS c_u_x323_ 0
     RHS c_u_x324_ 0
     RHS c_u_x325_ 0
     RHS c_u_x326_ 0
     RHS c_u_x327_ 0
     RHS c_u_x328_ 0
     RHS c_u_x329_ 0
     RHS c_u_x330_ 0
     RHS c_u_x331_ 0
     RHS c_u_x332_ 0
     RHS c_u_x333_ 0
     RHS c_u_x334_ 0
     RHS c_u_x335_ 0
     RHS c_u_x336_ 0
     RHS c_u_x337_ 0
     RHS c_u_x338_ 0
     RHS c_u_x339_ 0
     RHS c_u_x340_ 0
     RHS c_u_x341_ 0
     RHS c_u_x342_ 0
     RHS c_u_x343_ 0
     RHS c_u_x344_ 0
     RHS c_u_x345_ 0
     RHS c_u_x346_ 0
     RHS c_u_x347_ 0
     RHS c_u_x348_ 0
     RHS c_u_x349_ 0
     RHS c_u_x350_ 0
     RHS c_u_x351_ 0
     RHS c_u_x352_ 0
     RHS c_u_x353_ 0
     RHS c_u_x354_ 0
     RHS c_u_x355_ 0
     RHS c_u_x356_ 0
     RHS c_u_x357_ 0
     RHS c_u_x358_ 0
     RHS c_u_x359_ 0
     RHS c_u_x360_ 0
     RHS c_u_x361_ 0
     RHS c_u_x362_ 0
     RHS c_u_x363_ 1
     RHS c_u_x364_ 1
     RHS c_u_x365_ 1
     RHS c_u_x366_ 1
     RHS c_u_x367_ 1
     RHS c_u_x368_ 1
     RHS c_u_x369_ 1
     RHS c_u_x370_ 1
     RHS c_u_x371_ 1
     RHS c_u_x372_ 1
     RHS c_e_x373_ 0
     RHS c_e_x374_ 0
     RHS c_e_x375_ 0
     RHS c_e_x376_ 0
     RHS c_e_x377_ 0
     RHS c_e_x378_ 0
     RHS c_e_x379_ 0
     RHS c_e_x380_ 0
     RHS c_e_x381_ 0
     RHS c_e_x382_ 0
BOUNDS
 BV BOUND x1
 BV BOUND x2
 BV BOUND x3
 BV BOUND x4
 BV BOUND x5
 BV BOUND x6
 BV BOUND x7
 BV BOUND x8
 BV BOUND x9
 BV BOUND x10
 BV BOUND x11
 BV BOUND x12
 BV BOUND x13
 BV BOUND x14
 BV BOUND x15
 BV BOUND x16
 BV BOUND x17
 BV BOUND x18
 BV BOUND x19
 BV BOUND x20
 BV BOUND x21
 BV BOUND x22
 BV BOUND x23
 BV BOUND x24
 BV BOUND x25
 BV BOUND x26
 BV BOUND x27
 BV BOUND x28
 BV BOUND x29
 BV BOUND x30
 BV BOUND x31
 BV BOUND x32
 BV BOUND x33
 BV BOUND x34
 BV BOUND x35
 BV BOUND x36
 BV BOUND x37
 BV BOUND x38
 BV BOUND x39
 BV BOUND x40
 BV BOUND x41
 BV BOUND x42
 BV BOUND x43
 BV BOUND x44
 BV BOUND x45
 BV BOUND x46
 BV BOUND x47
 BV BOUND x48
 BV BOUND x49
 BV BOUND x50
 BV BOUND x51
 BV BOUND x52
 BV BOUND x53
 BV BOUND x54
 BV BOUND x55
 BV BOUND x56
 BV BOUND x57
 BV BOUND x58
 BV BOUND x59
 BV BOUND x60
 BV BOUND x61
 BV BOUND x62
 BV BOUND x63
 BV BOUND x64
 BV BOUND x65
 BV BOUND x66
 BV BOUND x67
 BV BOUND x68
 BV BOUND x69
 BV BOUND x70
 BV BOUND x71
 BV BOUND x72
 BV BOUND x73
 BV BOUND x74
 BV BOUND x75
 BV BOUND x76
 BV BOUND x77
 BV BOUND x78
 BV BOUND x79
 BV BOUND x80
 BV BOUND x81
 BV BOUND x82
 BV BOUND x83
 BV BOUND x84
 BV BOUND x85
 BV BOUND x86
 BV BOUND x87
 BV BOUND x88
 BV BOUND x89
 BV BOUND x90
 BV BOUND x91
 BV BOUND x92
 BV BOUND x93
 BV BOUND x94
 BV BOUND x95
 BV BOUND x96
 BV BOUND x97
 BV BOUND x98
 BV BOUND x99
 BV BOUND x100
 BV BOUND x101
 BV BOUND x102
 BV BOUND x103
 BV BOUND x104
 BV BOUND x105
 BV BOUND x106
 BV BOUND x107
 BV BOUND x108
 BV BOUND x109
 BV BOUND x110
 BV BOUND x111
 BV BOUND x112
 BV BOUND x113
 BV BOUND x114
 BV BOUND x115
 BV BOUND x116
 BV BOUND x117
 BV BOUND x118
 BV BOUND x119
 BV BOUND x120
 BV BOUND x121
 BV BOUND x122
 BV BOUND x123
 BV BOUND x124
 BV BOUND x125
 BV BOUND x126
 BV BOUND x127
 BV BOUND x128
 BV BOUND x129
 BV BOUND x130
ENDATA
